p cnf 95 320
3 1 0
3 -2 0
-1 2 -3 0
6 4 0
6 -5 0
-4 5 -6 0
8 6 0
8 7 0
-6 -7 -8 0
-11 9 0
-11 -10 0
-9 10 11 0
-12 -8 0
-12 -11 0
8 11 12 0
-3 -12 -13 0
3 12 -13 0
-3 12 13 0
3 -12 13 0
16 14 0
16 -15 0
-14 15 -16 0
17 -16 0
17 -9 0
16 9 -17 0
-18 10 0
-18 -17 0
-10 17 18 0
-13 -18 -19 0
13 18 -19 0
-13 18 19 0
13 -18 19 0
15 20 -21 0
-15 -20 -21 0
15 -20 21 0
-15 20 21 0
-21 22 0
21 22 0
-22 1 -23 0
22 -1 -23 0
-22 -1 23 0
22 1 23 0
24 19 0
24 -23 0
-19 23 -24 0
25 -14 0
25 -20 0
14 20 -25 0
26 25 0
26 -7 0
-25 7 -26 0
29 27 0
29 28 0
-27 -28 -29 0
30 -26 0
30 -29 0
26 29 -30 0
4 31 0
-4 31 0
32 31 0
32 17 0
-31 -17 -32 0
33 -4 0
33 11 0
4 -11 -33 0
34 -16 0
34 -29 0
16 29 -34 0
-33 -34 -35 0
33 34 -35 0
-33 34 35 0
33 -34 35 0
-36 32 0
-36 -35 0
-32 35 36 0
-27 -2 -37 0
27 2 -37 0
-27 2 37 0
27 -2 37 0
39 37 0
39 38 0
-37 -38 -39 0
36 -39 -40 0
-36 39 -40 0
36 39 40 0
-36 -39 40 0
-30 40 -41 0
30 -40 -41 0
-30 -40 41 0
30 40 41 0
-42 24 0
-42 -41 0
-24 41 42 0
43 -20 0
43 29 0
20 -29 -43 0
-44 4 0
-44 2 0
-4 -2 44 0
-45 2 0
-45 -44 0
-2 44 45 0
46 15 0
46 3 0
-15 -3 -46 0
-47 -45 0
-47 -46 0
45 46 47 0
48 -43 0
48 -47 0
43 47 -48 0
49 -9 0
49 3 0
9 -3 -49 0
50 -20 0
50 17 0
20 -17 -50 0
51 14 0
51 50 0
-14 -50 -51 0
49 51 -52 0
-49 -51 -52 0
49 -51 52 0
-49 51 52 0
-48 -52 -53 0
48 52 -53 0
-48 52 53 0
48 -52 53 0
-54 -2 0
-54 21 0
2 -21 54 0
-55 -20 0
-55 15 0
20 -15 55 0
-56 -54 0
-56 55 0
54 -55 56 0
-57 21 0
-57 29 0
-21 -29 57 0
58 56 0
58 -57 0
-56 57 -58 0
53 -58 -59 0
-53 58 -59 0
53 58 59 0
-53 -58 59 0
-60 -42 0
-60 -59 0
42 59 60 0
-61 14 0
-61 28 0
-14 -28 61 0
8 21 -62 0
-8 -21 -62 0
8 -21 62 0
-8 21 62 0
-14 -62 -63 0
14 62 -63 0
-14 62 63 0
14 -62 63 0
-61 63 -64 0
61 -63 -64 0
-61 -63 64 0
61 63 64 0
65 44 0
65 22 0
-44 -22 -65 0
66 -26 0
66 -3 0
26 3 -66 0
-65 -66 -67 0
65 66 -67 0
-65 66 67 0
65 -66 67 0
68 -67 0
68 62 0
67 -62 -68 0
-69 -8 0
-69 -68 0
8 68 69 0
-70 -62 0
-70 -69 0
62 69 70 0
-71 -9 0
-71 -70 0
9 70 71 0
-72 -70 0
-72 -7 0
70 7 72 0
73 -5 0
73 20 0
5 -20 -73 0
3 -73 -74 0
-3 73 -74 0
3 73 74 0
-3 -73 74 0
75 -72 0
75 74 0
72 -74 -75 0
75 -38 -76 0
-75 38 -76 0
75 38 76 0
-75 -38 76 0
-77 71 0
-77 -76 0
-71 76 77 0
-78 64 0
-78 77 0
-64 -77 78 0
10 69 -79 0
-10 -69 -79 0
10 -69 79 0
-10 69 79 0
-80 -78 0
-80 79 0
78 -79 80 0
60 80 -81 0
-60 -80 -81 0
60 -80 81 0
-60 80 81 0
82 -5 0
82 38 0
5 -38 -82 0
-82 22 -83 0
82 -22 -83 0
-82 -22 83 0
82 22 83 0
-84 -68 0
-84 22 0
68 -22 84 0
-85 45 0
-85 8 0
-45 -8 85 0
86 -84 0
86 85 0
84 -85 -86 0
-87 -33 0
-87 10 0
33 -10 87 0
1 68 -88 0
-1 -68 -88 0
1 -68 88 0
-1 68 88 0
89 28 -90 0
-89 -28 -90 0
89 -28 90 0
-89 28 90 0
88 90 -91 0
-88 -90 -91 0
88 -90 91 0
-88 90 91 0
92 -87 0
92 91 0
87 -91 -92 0
-93 -86 0
-93 92 0
86 -92 93 0
83 -93 -94 0
-83 93 -94 0
83 93 94 0
-83 -93 94 0
81 -94 -95 0
-81 94 -95 0
81 94 95 0
-81 -94 95 0
11 3 -89 21 84 -86 0
-4 29 0
-86 50 0
-34 -26 60 85 -49 36 0
57 -76 75 -27 0
47 -80 -33 88 0
-33 39 31 6 24 0
25 76 75 62 -71 0
34 -11 -18 -93 47 36 0
-4 -24 -29 25 -79 -5 0
12 -87 -23 -73 18 39 0
-92 4 21 0
92 -81 11 9 0
37 -56 92 -33 -39 -76 0
43 1 0
47 -51 61 -11 -22 0
-40 -62 0
-46 10 42 29 -16 -70 0
-11 32 76 0
-93 -80 -46 -37 0
13 -31 76 3 62 -89 0
63 -60 -20 0
-45 -56 0
-41 53 5 -91 68 0
-91 -36 -95 46 79 0
-56 45 0
-35 18 0
-67 66 -90 -64 -12 0
-46 -41 61 0
-88 56 0
-8 13 22 -79 50 0
-81 -72 -90 0
45 -34 -65 -80 75 0
-18 31 4 62 -94 0
88 74 -53 32 23 0
-95 -40 1 63 0
17 -35 0
22 -64 45 -46 84 0
88 94 -84 0
-55 25 88 81 39 68 0
18 -39 93 0
41 -35 0
24 53 40 74 -68 41 0
-7 -53 -36 0
40 32 0
-86 33 65 0
-84 41 -36 -38 0
-89 -82 83 -52 -33 0
-58 -42 91 48 85 46 0
-19 -43 3 -24 0
95 -53 0
30 65 -13 -60 0
-87 -23 -62 38 0
95 0
